c description: Tseitin formula on , with odd charge
c generator: CNFgen (0.9.0)
c copyright: (C) 2012-2020 Massimo Lauria <massimo.lauria@uniroma1.it>
c url: https://massimolauria.net/cnfgen
c
p cnf 30 496
1 2 3 4 5 0
1 2 3 -4 -5 0
1 2 -3 4 -5 0
1 2 -3 -4 5 0
1 -2 3 4 -5 0
1 -2 3 -4 5 0
1 -2 -3 4 5 0
1 -2 -3 -4 -5 0
-1 2 3 4 -5 0
-1 2 3 -4 5 0
-1 2 -3 4 5 0
-1 2 -3 -4 -5 0
-1 -2 3 4 5 0
-1 -2 3 -4 -5 0
-1 -2 -3 4 -5 0
-1 -2 -3 -4 5 0
1 6 7 8 9 10 11 -12 0
1 6 7 8 9 10 -11 12 0
1 6 7 8 9 -10 11 12 0
1 6 7 8 9 -10 -11 -12 0
1 6 7 8 -9 10 11 12 0
1 6 7 8 -9 10 -11 -12 0
1 6 7 8 -9 -10 11 -12 0
1 6 7 8 -9 -10 -11 12 0
1 6 7 -8 9 10 11 12 0
1 6 7 -8 9 10 -11 -12 0
1 6 7 -8 9 -10 11 -12 0
1 6 7 -8 9 -10 -11 12 0
1 6 7 -8 -9 10 11 -12 0
1 6 7 -8 -9 10 -11 12 0
1 6 7 -8 -9 -10 11 12 0
1 6 7 -8 -9 -10 -11 -12 0
1 6 -7 8 9 10 11 12 0
1 6 -7 8 9 10 -11 -12 0
1 6 -7 8 9 -10 11 -12 0
1 6 -7 8 9 -10 -11 12 0
1 6 -7 8 -9 10 11 -12 0
1 6 -7 8 -9 10 -11 12 0
1 6 -7 8 -9 -10 11 12 0
1 6 -7 8 -9 -10 -11 -12 0
1 6 -7 -8 9 10 11 -12 0
1 6 -7 -8 9 10 -11 12 0
1 6 -7 -8 9 -10 11 12 0
1 6 -7 -8 9 -10 -11 -12 0
1 6 -7 -8 -9 10 11 12 0
1 6 -7 -8 -9 10 -11 -12 0
1 6 -7 -8 -9 -10 11 -12 0
1 6 -7 -8 -9 -10 -11 12 0
1 -6 7 8 9 10 11 12 0
1 -6 7 8 9 10 -11 -12 0
1 -6 7 8 9 -10 11 -12 0
1 -6 7 8 9 -10 -11 12 0
1 -6 7 8 -9 10 11 -12 0
1 -6 7 8 -9 10 -11 12 0
1 -6 7 8 -9 -10 11 12 0
1 -6 7 8 -9 -10 -11 -12 0
1 -6 7 -8 9 10 11 -12 0
1 -6 7 -8 9 10 -11 12 0
1 -6 7 -8 9 -10 11 12 0
1 -6 7 -8 9 -10 -11 -12 0
1 -6 7 -8 -9 10 11 12 0
1 -6 7 -8 -9 10 -11 -12 0
1 -6 7 -8 -9 -10 11 -12 0
1 -6 7 -8 -9 -10 -11 12 0
1 -6 -7 8 9 10 11 -12 0
1 -6 -7 8 9 10 -11 12 0
1 -6 -7 8 9 -10 11 12 0
1 -6 -7 8 9 -10 -11 -12 0
1 -6 -7 8 -9 10 11 12 0
1 -6 -7 8 -9 10 -11 -12 0
1 -6 -7 8 -9 -10 11 -12 0
1 -6 -7 8 -9 -10 -11 12 0
1 -6 -7 -8 9 10 11 12 0
1 -6 -7 -8 9 10 -11 -12 0
1 -6 -7 -8 9 -10 11 -12 0
1 -6 -7 -8 9 -10 -11 12 0
1 -6 -7 -8 -9 10 11 -12 0
1 -6 -7 -8 -9 10 -11 12 0
1 -6 -7 -8 -9 -10 11 12 0
1 -6 -7 -8 -9 -10 -11 -12 0
-1 6 7 8 9 10 11 12 0
-1 6 7 8 9 10 -11 -12 0
-1 6 7 8 9 -10 11 -12 0
-1 6 7 8 9 -10 -11 12 0
-1 6 7 8 -9 10 11 -12 0
-1 6 7 8 -9 10 -11 12 0
-1 6 7 8 -9 -10 11 12 0
-1 6 7 8 -9 -10 -11 -12 0
-1 6 7 -8 9 10 11 -12 0
-1 6 7 -8 9 10 -11 12 0
-1 6 7 -8 9 -10 11 12 0
-1 6 7 -8 9 -10 -11 -12 0
-1 6 7 -8 -9 10 11 12 0
-1 6 7 -8 -9 10 -11 -12 0
-1 6 7 -8 -9 -10 11 -12 0
-1 6 7 -8 -9 -10 -11 12 0
-1 6 -7 8 9 10 11 -12 0
-1 6 -7 8 9 10 -11 12 0
-1 6 -7 8 9 -10 11 12 0
-1 6 -7 8 9 -10 -11 -12 0
-1 6 -7 8 -9 10 11 12 0
-1 6 -7 8 -9 10 -11 -12 0
-1 6 -7 8 -9 -10 11 -12 0
-1 6 -7 8 -9 -10 -11 12 0
-1 6 -7 -8 9 10 11 12 0
-1 6 -7 -8 9 10 -11 -12 0
-1 6 -7 -8 9 -10 11 -12 0
-1 6 -7 -8 9 -10 -11 12 0
-1 6 -7 -8 -9 10 11 -12 0
-1 6 -7 -8 -9 10 -11 12 0
-1 6 -7 -8 -9 -10 11 12 0
-1 6 -7 -8 -9 -10 -11 -12 0
-1 -6 7 8 9 10 11 -12 0
-1 -6 7 8 9 10 -11 12 0
-1 -6 7 8 9 -10 11 12 0
-1 -6 7 8 9 -10 -11 -12 0
-1 -6 7 8 -9 10 11 12 0
-1 -6 7 8 -9 10 -11 -12 0
-1 -6 7 8 -9 -10 11 -12 0
-1 -6 7 8 -9 -10 -11 12 0
-1 -6 7 -8 9 10 11 12 0
-1 -6 7 -8 9 10 -11 -12 0
-1 -6 7 -8 9 -10 11 -12 0
-1 -6 7 -8 9 -10 -11 12 0
-1 -6 7 -8 -9 10 11 -12 0
-1 -6 7 -8 -9 10 -11 12 0
-1 -6 7 -8 -9 -10 11 12 0
-1 -6 7 -8 -9 -10 -11 -12 0
-1 -6 -7 8 9 10 11 12 0
-1 -6 -7 8 9 10 -11 -12 0
-1 -6 -7 8 9 -10 11 -12 0
-1 -6 -7 8 9 -10 -11 12 0
-1 -6 -7 8 -9 10 11 -12 0
-1 -6 -7 8 -9 10 -11 12 0
-1 -6 -7 8 -9 -10 11 12 0
-1 -6 -7 8 -9 -10 -11 -12 0
-1 -6 -7 -8 9 10 11 -12 0
-1 -6 -7 -8 9 10 -11 12 0
-1 -6 -7 -8 9 -10 11 12 0
-1 -6 -7 -8 9 -10 -11 -12 0
-1 -6 -7 -8 -9 10 11 12 0
-1 -6 -7 -8 -9 10 -11 -12 0
-1 -6 -7 -8 -9 -10 11 -12 0
-1 -6 -7 -8 -9 -10 -11 12 0
6 13 14 15 -16 0
6 13 14 -15 16 0
6 13 -14 15 16 0
6 13 -14 -15 -16 0
6 -13 14 15 16 0
6 -13 14 -15 -16 0
6 -13 -14 15 -16 0
6 -13 -14 -15 16 0
-6 13 14 15 16 0
-6 13 14 -15 -16 0
-6 13 -14 15 -16 0
-6 13 -14 -15 16 0
-6 -13 14 15 -16 0
-6 -13 14 -15 16 0
-6 -13 -14 15 16 0
-6 -13 -14 -15 -16 0
7 13 17 18 19 20 -21 0
7 13 17 18 19 -20 21 0
7 13 17 18 -19 20 21 0
7 13 17 18 -19 -20 -21 0
7 13 17 -18 19 20 21 0
7 13 17 -18 19 -20 -21 0
7 13 17 -18 -19 20 -21 0
7 13 17 -18 -19 -20 21 0
7 13 -17 18 19 20 21 0
7 13 -17 18 19 -20 -21 0
7 13 -17 18 -19 20 -21 0
7 13 -17 18 -19 -20 21 0
7 13 -17 -18 19 20 -21 0
7 13 -17 -18 19 -20 21 0
7 13 -17 -18 -19 20 21 0
7 13 -17 -18 -19 -20 -21 0
7 -13 17 18 19 20 21 0
7 -13 17 18 19 -20 -21 0
7 -13 17 18 -19 20 -21 0
7 -13 17 18 -19 -20 21 0
7 -13 17 -18 19 20 -21 0
7 -13 17 -18 19 -20 21 0
7 -13 17 -18 -19 20 21 0
7 -13 17 -18 -19 -20 -21 0
7 -13 -17 18 19 20 -21 0
7 -13 -17 18 19 -20 21 0
7 -13 -17 18 -19 20 21 0
7 -13 -17 18 -19 -20 -21 0
7 -13 -17 -18 19 20 21 0
7 -13 -17 -18 19 -20 -21 0
7 -13 -17 -18 -19 20 -21 0
7 -13 -17 -18 -19 -20 21 0
-7 13 17 18 19 20 21 0
-7 13 17 18 19 -20 -21 0
-7 13 17 18 -19 20 -21 0
-7 13 17 18 -19 -20 21 0
-7 13 17 -18 19 20 -21 0
-7 13 17 -18 19 -20 21 0
-7 13 17 -18 -19 20 21 0
-7 13 17 -18 -19 -20 -21 0
-7 13 -17 18 19 20 -21 0
-7 13 -17 18 19 -20 21 0
-7 13 -17 18 -19 20 21 0
-7 13 -17 18 -19 -20 -21 0
-7 13 -17 -18 19 20 21 0
-7 13 -17 -18 19 -20 -21 0
-7 13 -17 -18 -19 20 -21 0
-7 13 -17 -18 -19 -20 21 0
-7 -13 17 18 19 20 -21 0
-7 -13 17 18 19 -20 21 0
-7 -13 17 18 -19 20 21 0
-7 -13 17 18 -19 -20 -21 0
-7 -13 17 -18 19 20 21 0
-7 -13 17 -18 19 -20 -21 0
-7 -13 17 -18 -19 20 -21 0
-7 -13 17 -18 -19 -20 21 0
-7 -13 -17 18 19 20 21 0
-7 -13 -17 18 19 -20 -21 0
-7 -13 -17 18 -19 20 -21 0
-7 -13 -17 18 -19 -20 21 0
-7 -13 -17 -18 19 20 -21 0
-7 -13 -17 -18 19 -20 21 0
-7 -13 -17 -18 -19 20 21 0
-7 -13 -17 -18 -19 -20 -21 0
2 8 17 -22 0
2 8 -17 22 0
2 -8 17 22 0
2 -8 -17 -22 0
-2 8 17 22 0
-2 8 -17 -22 0
-2 -8 17 -22 0
-2 -8 -17 22 0
3 9 18 22 23 24 25 -26 0
3 9 18 22 23 24 -25 26 0
3 9 18 22 23 -24 25 26 0
3 9 18 22 23 -24 -25 -26 0
3 9 18 22 -23 24 25 26 0
3 9 18 22 -23 24 -25 -26 0
3 9 18 22 -23 -24 25 -26 0
3 9 18 22 -23 -24 -25 26 0
3 9 18 -22 23 24 25 26 0
3 9 18 -22 23 24 -25 -26 0
3 9 18 -22 23 -24 25 -26 0
3 9 18 -22 23 -24 -25 26 0
3 9 18 -22 -23 24 25 -26 0
3 9 18 -22 -23 24 -25 26 0
3 9 18 -22 -23 -24 25 26 0
3 9 18 -22 -23 -24 -25 -26 0
3 9 -18 22 23 24 25 26 0
3 9 -18 22 23 24 -25 -26 0
3 9 -18 22 23 -24 25 -26 0
3 9 -18 22 23 -24 -25 26 0
3 9 -18 22 -23 24 25 -26 0
3 9 -18 22 -23 24 -25 26 0
3 9 -18 22 -23 -24 25 26 0
3 9 -18 22 -23 -24 -25 -26 0
3 9 -18 -22 23 24 25 -26 0
3 9 -18 -22 23 24 -25 26 0
3 9 -18 -22 23 -24 25 26 0
3 9 -18 -22 23 -24 -25 -26 0
3 9 -18 -22 -23 24 25 26 0
3 9 -18 -22 -23 24 -25 -26 0
3 9 -18 -22 -23 -24 25 -26 0
3 9 -18 -22 -23 -24 -25 26 0
3 -9 18 22 23 24 25 26 0
3 -9 18 22 23 24 -25 -26 0
3 -9 18 22 23 -24 25 -26 0
3 -9 18 22 23 -24 -25 26 0
3 -9 18 22 -23 24 25 -26 0
3 -9 18 22 -23 24 -25 26 0
3 -9 18 22 -23 -24 25 26 0
3 -9 18 22 -23 -24 -25 -26 0
3 -9 18 -22 23 24 25 -26 0
3 -9 18 -22 23 24 -25 26 0
3 -9 18 -22 23 -24 25 26 0
3 -9 18 -22 23 -24 -25 -26 0
3 -9 18 -22 -23 24 25 26 0
3 -9 18 -22 -23 24 -25 -26 0
3 -9 18 -22 -23 -24 25 -26 0
3 -9 18 -22 -23 -24 -25 26 0
3 -9 -18 22 23 24 25 -26 0
3 -9 -18 22 23 24 -25 26 0
3 -9 -18 22 23 -24 25 26 0
3 -9 -18 22 23 -24 -25 -26 0
3 -9 -18 22 -23 24 25 26 0
3 -9 -18 22 -23 24 -25 -26 0
3 -9 -18 22 -23 -24 25 -26 0
3 -9 -18 22 -23 -24 -25 26 0
3 -9 -18 -22 23 24 25 26 0
3 -9 -18 -22 23 24 -25 -26 0
3 -9 -18 -22 23 -24 25 -26 0
3 -9 -18 -22 23 -24 -25 26 0
3 -9 -18 -22 -23 24 25 -26 0
3 -9 -18 -22 -23 24 -25 26 0
3 -9 -18 -22 -23 -24 25 26 0
3 -9 -18 -22 -23 -24 -25 -26 0
-3 9 18 22 23 24 25 26 0
-3 9 18 22 23 24 -25 -26 0
-3 9 18 22 23 -24 25 -26 0
-3 9 18 22 23 -24 -25 26 0
-3 9 18 22 -23 24 25 -26 0
-3 9 18 22 -23 24 -25 26 0
-3 9 18 22 -23 -24 25 26 0
-3 9 18 22 -23 -24 -25 -26 0
-3 9 18 -22 23 24 25 -26 0
-3 9 18 -22 23 24 -25 26 0
-3 9 18 -22 23 -24 25 26 0
-3 9 18 -22 23 -24 -25 -26 0
-3 9 18 -22 -23 24 25 26 0
-3 9 18 -22 -23 24 -25 -26 0
-3 9 18 -22 -23 -24 25 -26 0
-3 9 18 -22 -23 -24 -25 26 0
-3 9 -18 22 23 24 25 -26 0
-3 9 -18 22 23 24 -25 26 0
-3 9 -18 22 23 -24 25 26 0
-3 9 -18 22 23 -24 -25 -26 0
-3 9 -18 22 -23 24 25 26 0
-3 9 -18 22 -23 24 -25 -26 0
-3 9 -18 22 -23 -24 25 -26 0
-3 9 -18 22 -23 -24 -25 26 0
-3 9 -18 -22 23 24 25 26 0
-3 9 -18 -22 23 24 -25 -26 0
-3 9 -18 -22 23 -24 25 -26 0
-3 9 -18 -22 23 -24 -25 26 0
-3 9 -18 -22 -23 24 25 -26 0
-3 9 -18 -22 -23 24 -25 26 0
-3 9 -18 -22 -23 -24 25 26 0
-3 9 -18 -22 -23 -24 -25 -26 0
-3 -9 18 22 23 24 25 -26 0
-3 -9 18 22 23 24 -25 26 0
-3 -9 18 22 23 -24 25 26 0
-3 -9 18 22 23 -24 -25 -26 0
-3 -9 18 22 -23 24 25 26 0
-3 -9 18 22 -23 24 -25 -26 0
-3 -9 18 22 -23 -24 25 -26 0
-3 -9 18 22 -23 -24 -25 26 0
-3 -9 18 -22 23 24 25 26 0
-3 -9 18 -22 23 24 -25 -26 0
-3 -9 18 -22 23 -24 25 -26 0
-3 -9 18 -22 23 -24 -25 26 0
-3 -9 18 -22 -23 24 25 -26 0
-3 -9 18 -22 -23 24 -25 26 0
-3 -9 18 -22 -23 -24 25 26 0
-3 -9 18 -22 -23 -24 -25 -26 0
-3 -9 -18 22 23 24 25 26 0
-3 -9 -18 22 23 24 -25 -26 0
-3 -9 -18 22 23 -24 25 -26 0
-3 -9 -18 22 23 -24 -25 26 0
-3 -9 -18 22 -23 24 25 -26 0
-3 -9 -18 22 -23 24 -25 26 0
-3 -9 -18 22 -23 -24 25 26 0
-3 -9 -18 22 -23 -24 -25 -26 0
-3 -9 -18 -22 23 24 25 -26 0
-3 -9 -18 -22 23 24 -25 26 0
-3 -9 -18 -22 23 -24 25 26 0
-3 -9 -18 -22 23 -24 -25 -26 0
-3 -9 -18 -22 -23 24 25 26 0
-3 -9 -18 -22 -23 24 -25 -26 0
-3 -9 -18 -22 -23 -24 25 -26 0
-3 -9 -18 -22 -23 -24 -25 26 0
19 23 27 -28 0
19 23 -27 28 0
19 -23 27 28 0
19 -23 -27 -28 0
-19 23 27 28 0
-19 23 -27 -28 0
-19 -23 27 -28 0
-19 -23 -27 28 0
4 10 14 20 24 27 -29 0
4 10 14 20 24 -27 29 0
4 10 14 20 -24 27 29 0
4 10 14 20 -24 -27 -29 0
4 10 14 -20 24 27 29 0
4 10 14 -20 24 -27 -29 0
4 10 14 -20 -24 27 -29 0
4 10 14 -20 -24 -27 29 0
4 10 -14 20 24 27 29 0
4 10 -14 20 24 -27 -29 0
4 10 -14 20 -24 27 -29 0
4 10 -14 20 -24 -27 29 0
4 10 -14 -20 24 27 -29 0
4 10 -14 -20 24 -27 29 0
4 10 -14 -20 -24 27 29 0
4 10 -14 -20 -24 -27 -29 0
4 -10 14 20 24 27 29 0
4 -10 14 20 24 -27 -29 0
4 -10 14 20 -24 27 -29 0
4 -10 14 20 -24 -27 29 0
4 -10 14 -20 24 27 -29 0
4 -10 14 -20 24 -27 29 0
4 -10 14 -20 -24 27 29 0
4 -10 14 -20 -24 -27 -29 0
4 -10 -14 20 24 27 -29 0
4 -10 -14 20 24 -27 29 0
4 -10 -14 20 -24 27 29 0
4 -10 -14 20 -24 -27 -29 0
4 -10 -14 -20 24 27 29 0
4 -10 -14 -20 24 -27 -29 0
4 -10 -14 -20 -24 27 -29 0
4 -10 -14 -20 -24 -27 29 0
-4 10 14 20 24 27 29 0
-4 10 14 20 24 -27 -29 0
-4 10 14 20 -24 27 -29 0
-4 10 14 20 -24 -27 29 0
-4 10 14 -20 24 27 -29 0
-4 10 14 -20 24 -27 29 0
-4 10 14 -20 -24 27 29 0
-4 10 14 -20 -24 -27 -29 0
-4 10 -14 20 24 27 -29 0
-4 10 -14 20 24 -27 29 0
-4 10 -14 20 -24 27 29 0
-4 10 -14 20 -24 -27 -29 0
-4 10 -14 -20 24 27 29 0
-4 10 -14 -20 24 -27 -29 0
-4 10 -14 -20 -24 27 -29 0
-4 10 -14 -20 -24 -27 29 0
-4 -10 14 20 24 27 -29 0
-4 -10 14 20 24 -27 29 0
-4 -10 14 20 -24 27 29 0
-4 -10 14 20 -24 -27 -29 0
-4 -10 14 -20 24 27 29 0
-4 -10 14 -20 24 -27 -29 0
-4 -10 14 -20 -24 27 -29 0
-4 -10 14 -20 -24 -27 29 0
-4 -10 -14 20 24 27 29 0
-4 -10 -14 20 24 -27 -29 0
-4 -10 -14 20 -24 27 -29 0
-4 -10 -14 20 -24 -27 29 0
-4 -10 -14 -20 24 27 -29 0
-4 -10 -14 -20 24 -27 29 0
-4 -10 -14 -20 -24 27 29 0
-4 -10 -14 -20 -24 -27 -29 0
11 15 25 28 29 -30 0
11 15 25 28 -29 30 0
11 15 25 -28 29 30 0
11 15 25 -28 -29 -30 0
11 15 -25 28 29 30 0
11 15 -25 28 -29 -30 0
11 15 -25 -28 29 -30 0
11 15 -25 -28 -29 30 0
11 -15 25 28 29 30 0
11 -15 25 28 -29 -30 0
11 -15 25 -28 29 -30 0
11 -15 25 -28 -29 30 0
11 -15 -25 28 29 -30 0
11 -15 -25 28 -29 30 0
11 -15 -25 -28 29 30 0
11 -15 -25 -28 -29 -30 0
-11 15 25 28 29 30 0
-11 15 25 28 -29 -30 0
-11 15 25 -28 29 -30 0
-11 15 25 -28 -29 30 0
-11 15 -25 28 29 -30 0
-11 15 -25 28 -29 30 0
-11 15 -25 -28 29 30 0
-11 15 -25 -28 -29 -30 0
-11 -15 25 28 29 -30 0
-11 -15 25 28 -29 30 0
-11 -15 25 -28 29 30 0
-11 -15 25 -28 -29 -30 0
-11 -15 -25 28 29 30 0
-11 -15 -25 28 -29 -30 0
-11 -15 -25 -28 29 -30 0
-11 -15 -25 -28 -29 30 0
5 12 16 21 26 -30 0
5 12 16 21 -26 30 0
5 12 16 -21 26 30 0
5 12 16 -21 -26 -30 0
5 12 -16 21 26 30 0
5 12 -16 21 -26 -30 0
5 12 -16 -21 26 -30 0
5 12 -16 -21 -26 30 0
5 -12 16 21 26 30 0
5 -12 16 21 -26 -30 0
5 -12 16 -21 26 -30 0
5 -12 16 -21 -26 30 0
5 -12 -16 21 26 -30 0
5 -12 -16 21 -26 30 0
5 -12 -16 -21 26 30 0
5 -12 -16 -21 -26 -30 0
-5 12 16 21 26 30 0
-5 12 16 21 -26 -30 0
-5 12 16 -21 26 -30 0
-5 12 16 -21 -26 30 0
-5 12 -16 21 26 -30 0
-5 12 -16 21 -26 30 0
-5 12 -16 -21 26 30 0
-5 12 -16 -21 -26 -30 0
-5 -12 16 21 26 -30 0
-5 -12 16 21 -26 30 0
-5 -12 16 -21 26 30 0
-5 -12 16 -21 -26 -30 0
-5 -12 -16 21 26 30 0
-5 -12 -16 21 -26 -30 0
-5 -12 -16 -21 26 -30 0
-5 -12 -16 -21 -26 30 0